NAME : X-n502-k39
COMMENT : "Generated by Uchoa, Pecin, Pessoa, Poggi, Subramanian, and Vidal (2013)"
TYPE : CVRP
DIMENSION : 502
EDGE_WEIGHT_TYPE : EUC_2D
CAPACITY : 13
NODE_COORD_SECTION
1 0 0
2 159 917
3 635 200
4 278 907
5 667 141
6 119 954
7 29 448
8 590 87
9 375 990
10 511 374
11 298 957
12 107 911
13 323 766
14 161 892
15 151 912
16 438 1000
17 284 933
18 724 191
19 286 940
20 144 785
21 672 157
22 759 176
23 553 179
24 625 167
25 133 924
26 695 73
27 149 946
28 599 162
29 305 712
30 229 709
31 332 874
32 756 143
33 696 248
34 94 777
35 381 975
36 224 928
37 414 951
38 910 190
39 749 162
40 668 273
41 146 786
42 17 793
43 255 883
44 326 837
45 549 226
46 137 868
47 74 977
48 618 248
49 328 898
50 62 802
51 177 914
52 646 208
53 666 142
54 591 205
55 163 873
56 721 164
57 623 153
58 333 956
59 237 874
60 729 102
61 330 896
62 192 949
63 446 930
64 148 897
65 92 876
66 389 942
67 131 847
68 237 990
69 594 149
70 780 190
71 719 271
72 168 982
73 278 911
74 256 896
75 279 903
76 613 47
77 597 187
78 440 296
79 320 872
80 261 925
81 301 931
82 599 218
83 227 860
84 591 189
85 319 992
86 617 172
87 118 839
88 117 909
89 578 300
90 503 966
91 232 907
92 34 955
93 191 816
94 273 42
95 171 877
96 132 920
97 113 906
98 581 125
99 138 910
100 149 870
101 622 303
102 278 845
103 587 60
104 234 818
105 310 832
106 568 227
107 711 167
108 728 251
109 185 937
110 110 840
111 254 945
112 140 937
113 238 919
114 9 875
115 97 799
116 804 100
117 243 927
118 310 938
119 171 826
120 677 213
121 708 166
122 151 931
123 262 920
124 121 769
125 149 660
126 199 749
127 78 738
128 323 963
129 63 799
130 233 931
131 693 170
132 673 156
133 213 980
134 620 191
135 125 946
136 748 117
137 250 926
138 661 327
139 147 831
140 181 923
141 548 235
142 682 157
143 263 898
144 469 339
145 144 915
146 569 234
147 577 450
148 598 231
149 693 229
150 227 952
151 211 643
152 12 942
153 288 969
154 734 312
155 641 37
156 241 761
157 618 206
158 156 915
159 712 391
160 74 787
161 705 109
162 240 902
163 603 338
164 572 363
165 620 204
166 272 925
167 652 231
168 585 299
169 107 789
170 617 223
171 242 907
172 601 240
173 453 388
174 301 889
175 246 818
176 356 916
177 681 238
178 607 119
179 351 970
180 159 896
181 582 156
182 472 257
183 143 878
184 113 926
185 236 888
186 738 73
187 677 194
188 716 196
189 532 304
190 334 772
191 514 326
192 220 712
193 631 121
194 531 262
195 707 228
196 617 160
197 624 151
198 609 191
199 599 228
200 210 727
201 481 78
202 239 749
203 650 373
204 550 138
205 393 807
206 195 806
207 81 873
208 375 829
209 506 104
210 104 898
211 674 225
212 271 910
213 222 806
214 655 37
215 324 847
216 622 54
217 399 213
218 101 875
219 668 402
220 30 895
221 241 842
222 627 176
223 869 235
224 812 223
225 561 286
226 171 973
227 582 242
228 192 858
229 651 183
230 175 840
231 365 946
232 215 770
233 125 924
234 296 984
235 682 174
236 165 846
237 136 982
238 397 821
239 185 807
240 236 972
241 278 948
242 338 880
243 759 215
244 498 51
245 177 962
246 253 878
247 190 865
248 612 266
249 204 902
250 169 877
251 101 877
252 586 247
253 242 885
254 235 775
255 585 201
256 592 164
257 461 897
258 652 246
259 267 899
260 204 860
261 298 852
262 156 936
263 135 977
264 268 927
265 303 918
266 110 877
267 625 248
268 265 857
269 592 325
270 715 115
271 565 376
272 306 759
273 208 961
274 120 892
275 115 963
276 33 726
277 750 227
278 432 927
279 97 802
280 552 303
281 257 846
282 191 873
283 595 189
284 190 815
285 175 949
286 359 932
287 458 246
288 175 872
289 486 173
290 320 818
291 207 945
292 32 894
293 183 837
294 76 937
295 154 972
296 215 886
297 647 225
298 90 963
299 635 199
300 310 860
301 757 281
302 528 222
303 187 947
304 568 144
305 179 893
306 429 939
307 323 841
308 527 77
309 116 883
310 792 274
311 611 282
312 170 927
313 776 408
314 136 925
315 161 968
316 575 237
317 283 911
318 684 269
319 303 957
320 98 843
321 608 145
322 136 934
323 412 885
324 435 879
325 421 265
326 189 916
327 296 925
328 394 969
329 161 856
330 222 947
331 189 816
332 470 256
333 239 875
334 171 888
335 433 776
336 434 170
337 205 941
338 55 872
339 354 803
340 612 189
341 135 857
342 664 215
343 145 863
344 740 71
345 102 946
346 592 250
347 519 99
348 214 884
349 402 983
350 593 174
351 118 922
352 738 121
353 41 948
354 350 705
355 544 124
356 196 681
357 160 889
358 159 858
359 654 195
360 782 275
361 328 864
362 605 668
363 241 885
364 740 404
365 266 914
366 717 180
367 458 81
368 684 230
369 301 860
370 180 920
371 301 865
372 294 964
373 383 912
374 559 143
375 747 383
376 433 966
377 563 258
378 827 145
379 294 784
380 147 707
381 173 944
382 298 915
383 175 923
384 333 919
385 280 869
386 596 219
387 614 286
388 104 861
389 279 771
390 188 938
391 100 840
392 117 866
393 722 126
394 215 853
395 276 893
396 444 296
397 547 286
398 213 803
399 86 990
400 173 947
401 672 173
402 130 983
403 360 987
404 718 192
405 66 817
406 657 97
407 33 914
408 649 414
409 680 208
410 623 266
411 678 101
412 270 864
413 620 232
414 335 935
415 451 57
416 295 987
417 101 738
418 359 881
419 158 934
420 182 919
421 717 177
422 653 54
423 683 139
424 381 928
425 277 962
426 645 238
427 608 267
428 625 217
429 565 76
430 523 188
431 519 855
432 165 947
433 305 922
434 406 294
435 125 702
436 227 858
437 774 36
438 611 204
439 107 703
440 209 979
441 557 175
442 80 903
443 172 890
444 203 984
445 665 200
446 230 892
447 138 914
448 270 872
449 702 198
450 737 258
451 150 975
452 666 196
453 174 804
454 266 959
455 142 936
456 142 976
457 79 750
458 208 836
459 439 240
460 438 339
461 841 230
462 289 910
463 191 888
464 309 861
465 242 958
466 408 932
467 243 954
468 616 200
469 729 281
470 642 230
471 707 106
472 395 678
473 134 820
474 514 197
475 547 236
476 660 98
477 0 923
478 190 870
479 302 673
480 50 967
481 79 930
482 628 254
483 3 965
484 159 988
485 613 252
486 229 833
487 343 877
488 255 772
489 626 246
490 332 921
491 214 861
492 200 882
493 117 872
494 119 964
495 370 865
496 632 243
497 304 893
498 52 899
499 434 232
500 288 773
501 301 905
502 284 799
PICKUP_AND_DELIVERY_SECTION
1 0 0 1000000000 0 0 0
2 0 0 1000000000 0 0.1734 0.8266
3 0 0 1000000000 0 0.315 0.685
4 0 0 1000000000 0 0.3065 0.6935
5 0 0 1000000000 0 0.2114 0.7886
6 0 0 1000000000 0 0.1247 0.8753
7 0 0 1000000000 0 0.06473 0.9353
8 0 0 1000000000 0 0.1475 0.8525
9 0 0 1000000000 0 0.3788 0.6212
10 0 0 1000000000 0 0.7319 0.2681
11 0 0 1000000000 0 0.3114 0.6886
12 0 0 1000000000 0 0.1175 0.8825
13 0 0 1000000000 0 0.4217 0.5783
14 0 0 1000000000 0 0.1805 0.8195
15 0 0 1000000000 0 0.1656 0.8344
16 0 0 1000000000 0 0.438 0.562
17 0 0 1000000000 0 0.3044 0.6956
18 0 0 1000000000 0 0.2638 0.7362
19 0 0 1000000000 0 0.3043 0.6957
20 0 0 1000000000 0 0.1834 0.8166
21 0 0 1000000000 0 0.2336 0.7664
22 0 0 1000000000 0 0.2319 0.7681
23 0 0 1000000000 0 0.3237 0.6763
24 0 0 1000000000 0 0.2672 0.7328
25 0 0 1000000000 0 0.1439 0.8561
26 0 0 1000000000 0 0.105 0.895
27 0 0 1000000000 0 0.1575 0.8425
28 0 0 1000000000 0 0.2705 0.7295
29 0 0 1000000000 0 0.4284 0.5716
30 0 0 1000000000 0 0.323 0.677
31 0 0 1000000000 0 0.3799 0.6201
32 0 0 1000000000 0 0.1892 0.8108
33 0 0 1000000000 0 0.3563 0.6437
34 0 0 1000000000 0 0.121 0.879
35 0 0 1000000000 0 0.3908 0.6092
36 0 0 1000000000 0 0.2414 0.7586
37 0 0 1000000000 0 0.4353 0.5647
38 0 0 1000000000 0 0.2088 0.7912
39 0 0 1000000000 0 0.2163 0.7837
40 0 0 1000000000 0 0.4087 0.5913
41 0 0 1000000000 0 0.1858 0.8142
42 0 0 1000000000 0 0.02144 0.9786
43 0 0 1000000000 0 0.2888 0.7112
44 0 0 1000000000 0 0.3895 0.6105
45 0 0 1000000000 0 0.4117 0.5883
46 0 0 1000000000 0 0.1578 0.8422
47 0 0 1000000000 0 0.07574 0.9243
48 0 0 1000000000 0 0.4013 0.5987
49 0 0 1000000000 0 0.3653 0.6347
50 0 0 1000000000 0 0.07731 0.9227
51 0 0 1000000000 0 0.1937 0.8063
52 0 0 1000000000 0 0.322 0.678
53 0 0 1000000000 0 0.2132 0.7868
54 0 0 1000000000 0 0.3469 0.6531
55 0 0 1000000000 0 0.1867 0.8133
56 0 0 1000000000 0 0.2275 0.7725
57 0 0 1000000000 0 0.2456 0.7544
58 0 0 1000000000 0 0.3483 0.6517
59 0 0 1000000000 0 0.2712 0.7288
60 0 0 1000000000 0 0.1399 0.8601
61 0 0 1000000000 0 0.3683 0.6317
62 0 0 1000000000 0 0.2023 0.7977
63 0 0 1000000000 0 0.4796 0.5204
64 0 0 1000000000 0 0.165 0.835
65 0 0 1000000000 0 0.105 0.895
66 0 0 1000000000 0 0.413 0.587
67 0 0 1000000000 0 0.1547 0.8453
68 0 0 1000000000 0 0.2394 0.7606
69 0 0 1000000000 0 0.2508 0.7492
70 0 0 1000000000 0 0.2436 0.7564
71 0 0 1000000000 0 0.3769 0.6231
72 0 0 1000000000 0 0.1711 0.8289
73 0 0 1000000000 0 0.3052 0.6948
74 0 0 1000000000 0 0.2857 0.7143
75 0 0 1000000000 0 0.309 0.691
76 0 0 1000000000 0 0.07667 0.9233
77 0 0 1000000000 0 0.3132 0.6868
78 0 0 1000000000 0 0.6727 0.3273
79 0 0 1000000000 0 0.367 0.633
80 0 0 1000000000 0 0.2822 0.7178
81 0 0 1000000000 0 0.3233 0.6767
82 0 0 1000000000 0 0.3639 0.6361
83 0 0 1000000000 0 0.264 0.736
84 0 0 1000000000 0 0.3198 0.6802
85 0 0 1000000000 0 0.3216 0.6784
86 0 0 1000000000 0 0.2788 0.7212
87 0 0 1000000000 0 0.1406 0.8594
88 0 0 1000000000 0 0.1287 0.8713
89 0 0 1000000000 0 0.519 0.481
90 0 0 1000000000 0 0.5207 0.4793
91 0 0 1000000000 0 0.2558 0.7442
92 0 0 1000000000 0 0.0356 0.9644
93 0 0 1000000000 0 0.2341 0.7659
94 0 0 1000000000 0 0.1538 0.8462
95 0 0 1000000000 0 0.195 0.805
96 0 0 1000000000 0 0.1435 0.8565
97 0 0 1000000000 0 0.1247 0.8753
98 0 0 1000000000 0 0.2151 0.7849
99 0 0 1000000000 0 0.1516 0.8484
100 0 0 1000000000 0 0.1713 0.8287
101 0 0 1000000000 0 0.4871 0.5129
102 0 0 1000000000 0 0.329 0.671
103 0 0 1000000000 0 0.1022 0.8978
104 0 0 1000000000 0 0.2861 0.7139
105 0 0 1000000000 0 0.3726 0.6274
106 0 0 1000000000 0 0.3996 0.6004
107 0 0 1000000000 0 0.2349 0.7651
108 0 0 1000000000 0 0.3448 0.6552
109 0 0 1000000000 0 0.1974 0.8026
110 0 0 1000000000 0 0.131 0.869
111 0 0 1000000000 0 0.2688 0.7312
112 0 0 1000000000 0 0.1494 0.8506
113 0 0 1000000000 0 0.259 0.741
114 0 0 1000000000 0 0.01029 0.9897
115 0 0 1000000000 0 0.1214 0.8786
116 0 0 1000000000 0 0.1244 0.8756
117 0 0 1000000000 0 0.2621 0.7379
118 0 0 1000000000 0 0.3305 0.6695
119 0 0 1000000000 0 0.207 0.793
120 0 0 1000000000 0 0.3146 0.6854
121 0 0 1000000000 0 0.2345 0.7655
122 0 0 1000000000 0 0.1622 0.8378
123 0 0 1000000000 0 0.2848 0.7152
124 0 0 1000000000 0 0.1573 0.8427
125 0 0 1000000000 0 0.2258 0.7742
126 0 0 1000000000 0 0.2657 0.7343
127 0 0 1000000000 0 0.1057 0.8943
128 0 0 1000000000 0 0.3354 0.6646
129 0 0 1000000000 0 0.07885 0.9212
130 0 0 1000000000 0 0.2503 0.7497
131 0 0 1000000000 0 0.2453 0.7547
132 0 0 1000000000 0 0.2318 0.7682
133 0 0 1000000000 0 0.2173 0.7827
134 0 0 1000000000 0 0.3081 0.6919
135 0 0 1000000000 0 0.1321 0.8679
136 0 0 1000000000 0 0.1564 0.8436
137 0 0 1000000000 0 0.27 0.73
138 0 0 1000000000 0 0.4947 0.5053
139 0 0 1000000000 0 0.1769 0.8231
140 0 0 1000000000 0 0.1961 0.8039
141 0 0 1000000000 0 0.4288 0.5712
142 0 0 1000000000 0 0.2302 0.7698
143 0 0 1000000000 0 0.2929 0.7071
144 0 0 1000000000 0 0.7228 0.2772
145 0 0 1000000000 0 0.1574 0.8426
146 0 0 1000000000 0 0.4112 0.5888
147 0 0 1000000000 0 0.7799 0.2201
148 0 0 1000000000 0 0.3863 0.6137
149 0 0 1000000000 0 0.3304 0.6696
150 0 0 1000000000 0 0.2384 0.7616
151 0 0 1000000000 0 0.3281 0.6719
152 0 0 1000000000 0 0.01274 0.9873
153 0 0 1000000000 0 0.2972 0.7028
154 0 0 1000000000 0 0.4251 0.5749
155 0 0 1000000000 0 0.05772 0.9423
156 0 0 1000000000 0 0.3167 0.6833
157 0 0 1000000000 0 0.3333 0.6667
158 0 0 1000000000 0 0.1705 0.8295
159 0 0 1000000000 0 0.5492 0.4508
160 0 0 1000000000 0 0.09403 0.906
161 0 0 1000000000 0 0.1546 0.8454
162 0 0 1000000000 0 0.2661 0.7339
163 0 0 1000000000 0 0.5605 0.4395
164 0 0 1000000000 0 0.6346 0.3654
165 0 0 1000000000 0 0.329 0.671
166 0 0 1000000000 0 0.2941 0.7059
167 0 0 1000000000 0 0.3543 0.6457
168 0 0 1000000000 0 0.5111 0.4889
169 0 0 1000000000 0 0.1356 0.8644
170 0 0 1000000000 0 0.3614 0.6386
171 0 0 1000000000 0 0.2668 0.7332
172 0 0 1000000000 0 0.3993 0.6007
173 0 0 1000000000 0 0.8565 0.1435
174 0 0 1000000000 0 0.3386 0.6614
175 0 0 1000000000 0 0.3007 0.6993
176 0 0 1000000000 0 0.3886 0.6114
177 0 0 1000000000 0 0.3495 0.6505
178 0 0 1000000000 0 0.196 0.804
179 0 0 1000000000 0 0.3619 0.6381
180 0 0 1000000000 0 0.1775 0.8225
181 0 0 1000000000 0 0.268 0.732
182 0 0 1000000000 0 0.5445 0.4555
183 0 0 1000000000 0 0.1629 0.8371
184 0 0 1000000000 0 0.122 0.878
185 0 0 1000000000 0 0.2658 0.7342
186 0 0 1000000000 0 0.09892 0.9011
187 0 0 1000000000 0 0.2866 0.7134
188 0 0 1000000000 0 0.2737 0.7263
189 0 0 1000000000 0 0.5714 0.4286
190 0 0 1000000000 0 0.4326 0.5674
191 0 0 1000000000 0 0.6342 0.3658
192 0 0 1000000000 0 0.309 0.691
193 0 0 1000000000 0 0.1918 0.8082
194 0 0 1000000000 0 0.4934 0.5066
195 0 0 1000000000 0 0.3225 0.6775
196 0 0 1000000000 0 0.2593 0.7407
197 0 0 1000000000 0 0.242 0.758
198 0 0 1000000000 0 0.3136 0.6864
199 0 0 1000000000 0 0.3806 0.6194
200 0 0 1000000000 0 0.2889 0.7111
201 0 0 1000000000 0 0.1622 0.8378
202 0 0 1000000000 0 0.3191 0.6809
203 0 0 1000000000 0 0.5738 0.4262
204 0 0 1000000000 0 0.2509 0.7491
205 0 0 1000000000 0 0.487 0.513
206 0 0 1000000000 0 0.2419 0.7581
207 0 0 1000000000 0 0.09278 0.9072
208 0 0 1000000000 0 0.4524 0.5476
209 0 0 1000000000 0 0.2055 0.7945
210 0 0 1000000000 0 0.1158 0.8842
211 0 0 1000000000 0 0.3338 0.6662
212 0 0 1000000000 0 0.2978 0.7022
213 0 0 1000000000 0 0.2754 0.7246
214 0 0 1000000000 0 0.05649 0.9435
215 0 0 1000000000 0 0.3825 0.6175
216 0 0 1000000000 0 0.08682 0.9132
217 0 0 1000000000 0 0.5338 0.4662
218 0 0 1000000000 0 0.1154 0.8846
219 0 0 1000000000 0 0.6018 0.3982
220 0 0 1000000000 0 0.03352 0.9665
221 0 0 1000000000 0 0.2862 0.7138
222 0 0 1000000000 0 0.2807 0.7193
223 0 0 1000000000 0 0.2704 0.7296
224 0 0 1000000000 0 0.2746 0.7254
225 0 0 1000000000 0 0.5098 0.4902
226 0 0 1000000000 0 0.1757 0.8243
227 0 0 1000000000 0 0.4158 0.5842
228 0 0 1000000000 0 0.2238 0.7762
229 0 0 1000000000 0 0.2811 0.7189
230 0 0 1000000000 0 0.2083 0.7917
231 0 0 1000000000 0 0.3858 0.6142
232 0 0 1000000000 0 0.2792 0.7208
233 0 0 1000000000 0 0.1353 0.8647
234 0 0 1000000000 0 0.3008 0.6992
235 0 0 1000000000 0 0.2551 0.7449
236 0 0 1000000000 0 0.195 0.805
237 0 0 1000000000 0 0.1385 0.8615
238 0 0 1000000000 0 0.4836 0.5164
239 0 0 1000000000 0 0.2292 0.7708
240 0 0 1000000000 0 0.2428 0.7572
241 0 0 1000000000 0 0.2932 0.7068
242 0 0 1000000000 0 0.3841 0.6159
243 0 0 1000000000 0 0.2833 0.7167
244 0 0 1000000000 0 0.1024 0.8976
245 0 0 1000000000 0 0.184 0.816
246 0 0 1000000000 0 0.2882 0.7118
247 0 0 1000000000 0 0.2197 0.7803
248 0 0 1000000000 0 0.4346 0.5654
249 0 0 1000000000 0 0.2262 0.7738
250 0 0 1000000000 0 0.1927 0.8073
251 0 0 1000000000 0 0.1152 0.8848
252 0 0 1000000000 0 0.4215 0.5785
253 0 0 1000000000 0 0.2734 0.7266
254 0 0 1000000000 0 0.3032 0.6968
255 0 0 1000000000 0 0.3436 0.6564
256 0 0 1000000000 0 0.277 0.723
257 0 0 1000000000 0 0.5139 0.4861
258 0 0 1000000000 0 0.3773 0.6227
259 0 0 1000000000 0 0.297 0.703
260 0 0 1000000000 0 0.2372 0.7628
261 0 0 1000000000 0 0.3498 0.6502
262 0 0 1000000000 0 0.1667 0.8333
263 0 0 1000000000 0 0.1382 0.8618
264 0 0 1000000000 0 0.2891 0.7109
265 0 0 1000000000 0 0.3301 0.6699
266 0 0 1000000000 0 0.1254 0.8746
267 0 0 1000000000 0 0.3968 0.6032
268 0 0 1000000000 0 0.3092 0.6908
269 0 0 1000000000 0 0.549 0.451
270 0 0 1000000000 0 0.1608 0.8392
271 0 0 1000000000 0 0.6655 0.3345
272 0 0 1000000000 0 0.4032 0.5968
273 0 0 1000000000 0 0.2164 0.7836
274 0 0 1000000000 0 0.1345 0.8655
275 0 0 1000000000 0 0.1194 0.8806
276 0 0 1000000000 0 0.04545 0.9545
277 0 0 1000000000 0 0.3027 0.6973
278 0 0 1000000000 0 0.466 0.534
279 0 0 1000000000 0 0.1209 0.8791
280 0 0 1000000000 0 0.5489 0.4511
281 0 0 1000000000 0 0.3038 0.6962
282 0 0 1000000000 0 0.2188 0.7812
283 0 0 1000000000 0 0.3176 0.6824
284 0 0 1000000000 0 0.2331 0.7669
285 0 0 1000000000 0 0.1844 0.8156
286 0 0 1000000000 0 0.3852 0.6148
287 0 0 1000000000 0 0.5371 0.4629
288 0 0 1000000000 0 0.2007 0.7993
289 0 0 1000000000 0 0.356 0.644
290 0 0 1000000000 0 0.3912 0.6088
291 0 0 1000000000 0 0.219 0.781
292 0 0 1000000000 0 0.03579 0.9642
293 0 0 1000000000 0 0.2186 0.7814
294 0 0 1000000000 0 0.08111 0.9189
295 0 0 1000000000 0 0.1584 0.8416
296 0 0 1000000000 0 0.2427 0.7573
297 0 0 1000000000 0 0.3478 0.6522
298 0 0 1000000000 0 0.09346 0.9065
299 0 0 1000000000 0 0.3134 0.6866
300 0 0 1000000000 0 0.3605 0.6395
301 0 0 1000000000 0 0.3712 0.6288
302 0 0 1000000000 0 0.4205 0.5795
303 0 0 1000000000 0 0.1975 0.8025
304 0 0 1000000000 0 0.2535 0.7465
305 0 0 1000000000 0 0.2004 0.7996
306 0 0 1000000000 0 0.4569 0.5431
307 0 0 1000000000 0 0.3841 0.6159
308 0 0 1000000000 0 0.1461 0.8539
309 0 0 1000000000 0 0.1314 0.8686
310 0 0 1000000000 0 0.346 0.654
311 0 0 1000000000 0 0.4615 0.5385
312 0 0 1000000000 0 0.1834 0.8166
313 0 0 1000000000 0 0.5258 0.4742
314 0 0 1000000000 0 0.147 0.853
315 0 0 1000000000 0 0.1663 0.8337
316 0 0 1000000000 0 0.4122 0.5878
317 0 0 1000000000 0 0.3106 0.6894
318 0 0 1000000000 0 0.3933 0.6067
319 0 0 1000000000 0 0.3166 0.6834
320 0 0 1000000000 0 0.1163 0.8837
321 0 0 1000000000 0 0.2385 0.7615
322 0 0 1000000000 0 0.1456 0.8544
323 0 0 1000000000 0 0.4655 0.5345
324 0 0 1000000000 0 0.4949 0.5051
325 0 0 1000000000 0 0.6295 0.3705
326 0 0 1000000000 0 0.2063 0.7937
327 0 0 1000000000 0 0.32 0.68
328 0 0 1000000000 0 0.4066 0.5934
329 0 0 1000000000 0 0.1881 0.8119
330 0 0 1000000000 0 0.2344 0.7656
331 0 0 1000000000 0 0.2316 0.7684
332 0 0 1000000000 0 0.5447 0.4553
333 0 0 1000000000 0 0.2731 0.7269
334 0 0 1000000000 0 0.1926 0.8074
335 0 0 1000000000 0 0.558 0.442
336 0 0 1000000000 0 0.3917 0.6083
337 0 0 1000000000 0 0.2179 0.7821
338 0 0 1000000000 0 0.06307 0.9369
339 0 0 1000000000 0 0.4408 0.5592
340 0 0 1000000000 0 0.3088 0.6912
341 0 0 1000000000 0 0.1575 0.8425
342 0 0 1000000000 0 0.3238 0.6762
343 0 0 1000000000 0 0.168 0.832
344 0 0 1000000000 0 0.09595 0.9041
345 0 0 1000000000 0 0.1078 0.8922
346 0 0 1000000000 0 0.4223 0.5777
347 0 0 1000000000 0 0.1908 0.8092
348 0 0 1000000000 0 0.2421 0.7579
349 0 0 1000000000 0 0.409 0.591
350 0 0 1000000000 0 0.2934 0.7066
351 0 0 1000000000 0 0.128 0.872
352 0 0 1000000000 0 0.164 0.836
353 0 0 1000000000 0 0.04325 0.9568
354 0 0 1000000000 0 0.4965 0.5035
355 0 0 1000000000 0 0.2279 0.7721
356 0 0 1000000000 0 0.2878 0.7122
357 0 0 1000000000 0 0.18 0.82
358 0 0 1000000000 0 0.1853 0.8147
359 0 0 1000000000 0 0.2982 0.7018
360 0 0 1000000000 0 0.3517 0.6483
361 0 0 1000000000 0 0.3796 0.6204
362 0 0 1000000000 0 0.9057 0.09431
363 0 0 1000000000 0 0.2723 0.7277
364 0 0 1000000000 0 0.5459 0.4541
365 0 0 1000000000 0 0.291 0.709
366 0 0 1000000000 0 0.251 0.749
367 0 0 1000000000 0 0.1769 0.8231
368 0 0 1000000000 0 0.3363 0.6637
369 0 0 1000000000 0 0.35 0.65
370 0 0 1000000000 0 0.1957 0.8043
371 0 0 1000000000 0 0.348 0.652
372 0 0 1000000000 0 0.305 0.695
373 0 0 1000000000 0 0.42 0.58
374 0 0 1000000000 0 0.2558 0.7442
375 0 0 1000000000 0 0.5127 0.4873
376 0 0 1000000000 0 0.4482 0.5518
377 0 0 1000000000 0 0.4583 0.5417
378 0 0 1000000000 0 0.1753 0.8247
379 0 0 1000000000 0 0.375 0.625
380 0 0 1000000000 0 0.2079 0.7921
381 0 0 1000000000 0 0.1833 0.8167
382 0 0 1000000000 0 0.3257 0.6743
383 0 0 1000000000 0 0.1896 0.8104
384 0 0 1000000000 0 0.3624 0.6376
385 0 0 1000000000 0 0.3222 0.6778
386 0 0 1000000000 0 0.3674 0.6326
387 0 0 1000000000 0 0.4658 0.5342
388 0 0 1000000000 0 0.1208 0.8792
389 0 0 1000000000 0 0.3619 0.6381
390 0 0 1000000000 0 0.2004 0.7996
391 0 0 1000000000 0 0.119 0.881
392 0 0 1000000000 0 0.1351 0.8649
393 0 0 1000000000 0 0.1745 0.8255
394 0 0 1000000000 0 0.2521 0.7479
395 0 0 1000000000 0 0.3091 0.6909
396 0 0 1000000000 0 0.6667 0.3333
397 0 0 1000000000 0 0.5229 0.4771
398 0 0 1000000000 0 0.2653 0.7347
399 0 0 1000000000 0 0.08687 0.9131
400 0 0 1000000000 0 0.1827 0.8173
401 0 0 1000000000 0 0.2574 0.7426
402 0 0 1000000000 0 0.1322 0.8678
403 0 0 1000000000 0 0.3647 0.6353
404 0 0 1000000000 0 0.2674 0.7326
405 0 0 1000000000 0 0.08078 0.9192
406 0 0 1000000000 0 0.1476 0.8524
407 0 0 1000000000 0 0.03611 0.9639
408 0 0 1000000000 0 0.6379 0.3621
409 0 0 1000000000 0 0.3059 0.6941
410 0 0 1000000000 0 0.427 0.573
411 0 0 1000000000 0 0.149 0.851
412 0 0 1000000000 0 0.3125 0.6875
413 0 0 1000000000 0 0.3742 0.6258
414 0 0 1000000000 0 0.3583 0.6417
415 0 0 1000000000 0 0.1264 0.8736
416 0 0 1000000000 0 0.2989 0.7011
417 0 0 1000000000 0 0.1369 0.8631
418 0 0 1000000000 0 0.4075 0.5925
419 0 0 1000000000 0 0.1692 0.8308
420 0 0 1000000000 0 0.198 0.802
421 0 0 1000000000 0 0.2469 0.7531
422 0 0 1000000000 0 0.0827 0.9173
423 0 0 1000000000 0 0.2035 0.7965
424 0 0 1000000000 0 0.4106 0.5894
425 0 0 1000000000 0 0.2879 0.7121
426 0 0 1000000000 0 0.369 0.631
427 0 0 1000000000 0 0.4391 0.5609
428 0 0 1000000000 0 0.3472 0.6528
429 0 0 1000000000 0 0.1345 0.8655
430 0 0 1000000000 0 0.3595 0.6405
431 0 0 1000000000 0 0.607 0.393
432 0 0 1000000000 0 0.1742 0.8258
433 0 0 1000000000 0 0.3308 0.6692
434 0 0 1000000000 0 0.7241 0.2759
435 0 0 1000000000 0 0.1781 0.8219
436 0 0 1000000000 0 0.2646 0.7354
437 0 0 1000000000 0 0.04651 0.9535
438 0 0 1000000000 0 0.3339 0.6661
439 0 0 1000000000 0 0.1522 0.8478
440 0 0 1000000000 0 0.2135 0.7865
441 0 0 1000000000 0 0.3142 0.6858
442 0 0 1000000000 0 0.08859 0.9114
443 0 0 1000000000 0 0.1933 0.8067
444 0 0 1000000000 0 0.2063 0.7937
445 0 0 1000000000 0 0.3008 0.6992
446 0 0 1000000000 0 0.2578 0.7422
447 0 0 1000000000 0 0.151 0.849
448 0 0 1000000000 0 0.3096 0.6904
449 0 0 1000000000 0 0.2821 0.7179
450 0 0 1000000000 0 0.3501 0.6499
451 0 0 1000000000 0 0.1538 0.8462
452 0 0 1000000000 0 0.2943 0.7057
453 0 0 1000000000 0 0.2164 0.7836
454 0 0 1000000000 0 0.2774 0.7226
455 0 0 1000000000 0 0.1517 0.8483
456 0 0 1000000000 0 0.1455 0.8545
457 0 0 1000000000 0 0.1053 0.8947
458 0 0 1000000000 0 0.2488 0.7512
459 0 0 1000000000 0 0.5467 0.4533
460 0 0 1000000000 0 0.774 0.226
461 0 0 1000000000 0 0.2735 0.7265
462 0 0 1000000000 0 0.3176 0.6824
463 0 0 1000000000 0 0.2151 0.7849
464 0 0 1000000000 0 0.3589 0.6411
465 0 0 1000000000 0 0.2526 0.7474
466 0 0 1000000000 0 0.4378 0.5622
467 0 0 1000000000 0 0.2547 0.7453
468 0 0 1000000000 0 0.3247 0.6753
469 0 0 1000000000 0 0.3855 0.6145
470 0 0 1000000000 0 0.3583 0.6417
471 0 0 1000000000 0 0.1499 0.8501
472 0 0 1000000000 0 0.5826 0.4174
473 0 0 1000000000 0 0.1634 0.8366
474 0 0 1000000000 0 0.3833 0.6167
475 0 0 1000000000 0 0.4314 0.5686
476 0 0 1000000000 0 0.1485 0.8515
477 0 0 1000000000 0 0 1
478 0 0 1000000000 0 0.2184 0.7816
479 0 0 1000000000 0 0.4487 0.5513
480 0 0 1000000000 0 0.05171 0.9483
481 0 0 1000000000 0 0.08495 0.9151
482 0 0 1000000000 0 0.4045 0.5955
483 0 0 1000000000 0 0.00311 0.9969
484 0 0 1000000000 0 0.1609 0.8391
485 0 0 1000000000 0 0.4111 0.5889
486 0 0 1000000000 0 0.2749 0.7251
487 0 0 1000000000 0 0.3911 0.6089
488 0 0 1000000000 0 0.3303 0.6697
489 0 0 1000000000 0 0.393 0.607
490 0 0 1000000000 0 0.3605 0.6395
491 0 0 1000000000 0 0.2485 0.7515
492 0 0 1000000000 0 0.2268 0.7732
493 0 0 1000000000 0 0.1342 0.8658
494 0 0 1000000000 0 0.1234 0.8766
495 0 0 1000000000 0 0.4277 0.5723
496 0 0 1000000000 0 0.3845 0.6155
497 0 0 1000000000 0 0.3404 0.6596
498 0 0 1000000000 0 0.05784 0.9422
499 0 0 1000000000 0 0.5346 0.4654
500 0 0 1000000000 0 0.3726 0.6274
501 0 0 1000000000 0 0.3326 0.6674
502 0 0 1000000000 0 0.3554 0.6446
